SDVRP instances/custom_instances/p02_8_splitx10_0.vrp
NAME:p02_8_splitx10_
BEST_KNOWN: 0
COMMENT: 0
DIMENSION: 344
CAPACITY: 1400
EDGE_WEIGHT_FORMAT: FUNCTION
EDGE_WEIGHT_TYPE: EXACT_2D
NODE_COORD_SECTION
1 0.00000 0.00000
2 -46 -10
3 -46 -10
4 -46 -10
5 -46 -10
6 3 50
7 3 50
8 3 50
9 3 50
10 3 50
11 3 50
12 46 33
13 46 33
14 46 33
15 -27 48
16 -27 48
17 -27 48
18 -38 -34
19 -38 -34
20 -38 -34
21 -38 -34
22 19 45
23 19 45
24 19 45
25 19 45
26 19 45
27 -15 -11
28 -15 -11
29 -15 -11
30 0 26
31 0 26
32 18 3
33 18 3
34 18 3
35 18 3
36 18 26
37 18 26
38 18 26
39 -17 9
40 -17 9
41 -17 9
42 -17 9
43 -17 9
44 -34 -3
45 -34 -3
46 -34 -3
47 41 -9
48 41 -9
49 41 -9
50 41 -9
51 41 -9
52 46 -32
53 46 -32
54 46 -32
55 -33 -26
56 -33 -26
57 -33 -26
58 -33 -26
59 39 11
60 39 11
61 39 11
62 39 11
63 -11 -40
64 -11 -40
65 -11 -40
66 -11 -40
67 -11 -40
68 -11 -40
69 -11 -40
70 -28 27
71 -28 27
72 -28 27
73 -28 27
74 -12 7
75 -12 7
76 -12 7
77 41 39
78 41 39
79 41 39
80 41 39
81 41 39
82 -9 37
83 -9 37
84 -9 37
85 -9 37
86 -20 49
87 -20 49
88 -20 49
89 -20 49
90 -20 49
91 -23 38
92 -23 38
93 -23 38
94 -23 38
95 -23 38
96 -48 48
97 -48 48
98 -48 48
99 -48 48
100 -48 48
101 -48 48
102 -48 48
103 -48 48
104 -47 31
105 27 46
106 27 46
107 27 46
108 5 49
109 5 49
110 5 49
111 13 -6
112 13 -6
113 13 -6
114 13 -6
115 13 -6
116 21 -11
117 21 -11
118 21 -11
119 21 -11
120 21 -11
121 -46 41
122 -46 41
123 -46 41
124 -46 41
125 -46 41
126 -22 -29
127 -22 -29
128 -22 -29
129 -43 -31
130 -43 -31
131 -43 -31
132 -43 -31
133 -43 -31
134 -43 -31
135 -36 -18
136 -36 -18
137 -36 -18
138 45 -14
139 45 -14
140 45 -14
141 45 -14
142 45 -14
143 45 -14
144 45 -14
145 45 -14
146 42 -18
147 42 -18
148 -20 35
149 -20 35
150 -20 35
151 -20 35
152 16 37
153 16 37
154 16 37
155 16 37
156 16 37
157 16 37
158 16 37
159 -42 43
160 -42 43
161 -42 43
162 -42 43
163 -42 43
164 -42 43
165 -40 -4
166 -40 -4
167 -40 -4
168 -40 -4
169 -40 -4
170 -40 -4
171 35 -46
172 35 -46
173 35 -46
174 35 -46
175 48 39
176 48 39
177 48 39
178 48 39
179 12 -1
180 12 -1
181 12 -1
182 12 -1
183 34 7
184 34 7
185 34 7
186 -13 -36
187 -13 -36
188 -13 -36
189 -13 -36
190 -13 -36
191 25 12
192 25 12
193 25 12
194 25 12
195 25 12
196 -15 -28
197 -15 -28
198 -15 -28
199 2 -39
200 2 -39
201 2 -39
202 2 -39
203 2 -39
204 -22 -2
205 -22 -2
206 -22 -2
207 -22 -2
208 -22 -2
209 -22 -2
210 -21 32
211 -21 32
212 -21 32
213 -5 28
214 -5 28
215 -5 28
216 -5 28
217 -44 -29
218 -44 -29
219 -44 -29
220 -44 -29
221 -44 -29
222 5 13
223 5 13
224 5 13
225 12 -25
226 12 -25
227 12 -25
228 12 -25
229 12 -25
230 12 -25
231 19 -28
232 19 -28
233 19 -28
234 19 -28
235 19 -28
236 19 -28
237 19 -28
238 -39 -10
239 -39 -10
240 -39 -10
241 -39 -10
242 -39 -10
243 -39 -10
244 -39 -10
245 -27 -15
246 -27 -15
247 -27 -15
248 -27 -15
249 -27 -15
250 -27 -15
251 -27 -15
252 39 46
253 39 46
254 -32 11
255 -32 11
256 -32 11
257 -32 11
258 -32 11
259 -32 11
260 -32 11
261 -32 50
262 -32 50
263 -32 50
264 -32 50
265 -32 50
266 -32 50
267 -32 50
268 4 44
269 4 44
270 4 44
271 4 44
272 4 44
273 4 44
274 -30 10
275 -30 10
276 -30 10
277 -30 10
278 30 -48
279 30 -48
280 30 -48
281 30 -48
282 30 -48
283 22 4
284 22 4
285 22 4
286 22 4
287 -18 -10
288 -18 -10
289 -18 -10
290 -18 -10
291 41 13
292 41 13
293 41 13
294 41 13
295 41 13
296 41 13
297 41 13
298 -18 6
299 -18 6
300 -18 6
301 -18 6
302 -18 6
303 0 26
304 0 26
305 0 26
306 0 26
307 0 26
308 0 26
309 -5 -48
310 -5 -48
311 -5 -48
312 -5 -48
313 -5 -48
314 -5 -48
315 6 23
316 6 23
317 6 23
318 -47 33
319 -47 33
320 -47 33
321 -47 33
322 -4 41
323 -4 41
324 -4 41
325 -4 41
326 -4 41
327 -4 41
328 7 13
329 7 13
330 -40 48
331 -40 48
332 -40 48
333 -40 48
334 -40 48
335 44 30
336 44 30
337 44 30
338 44 30
339 44 30
340 -14 -50
341 -14 -50
342 -14 -50
343 -14 -50
344 -14 -50
DEMAND_SECTION
1 0
2 280
3 14
4 14
5 2
6 140
7 70
8 14
9 14
10 14
11 8
12 140
13 70
14 10
15 280
16 280
17 140
18 280
19 14
20 14
21 12
22 280
23 140
24 14
25 14
26 12
27 280
28 70
29 10
30 280
31 280
32 280
33 280
34 14
35 6
36 280
37 280
38 10
39 280
40 140
41 14
42 14
43 12
44 280
45 280
46 70
47 280
48 70
49 14
50 14
51 2
52 280
53 280
54 70
55 280
56 70
57 14
58 6
59 280
60 280
61 14
62 6
63 280
64 140
65 14
66 14
67 14
68 14
69 4
70 280
71 14
72 14
73 12
74 280
75 140
76 10
77 280
78 14
79 14
80 14
81 8
82 280
83 140
84 70
85 10
86 140
87 70
88 14
89 14
90 2
91 280
92 70
93 14
94 14
95 2
96 280
97 140
98 70
99 14
100 14
101 14
102 14
103 4
104 280
105 280
106 280
107 70
108 280
109 280
110 10
111 280
112 70
113 14
114 14
115 2
116 280
117 14
118 14
119 14
120 8
121 280
122 140
123 14
124 14
125 12
126 280
127 140
128 70
129 280
130 140
131 70
132 14
133 14
134 12
135 280
136 280
137 140
138 280
139 140
140 70
141 14
142 14
143 14
144 14
145 4
146 280
147 140
148 280
149 14
150 14
151 12
152 280
153 140
154 14
155 14
156 14
157 14
158 4
159 280
160 280
161 70
162 14
163 14
164 2
165 280
166 280
167 70
168 14
169 14
170 2
171 280
172 280
173 70
174 10
175 140
176 70
177 14
178 6
179 280
180 14
181 14
182 2
183 280
184 140
185 70
186 280
187 280
188 14
189 14
190 2
191 280
192 280
193 70
194 14
195 6
196 280
197 280
198 70
199 280
200 70
201 14
202 14
203 12
204 280
205 140
206 70
207 14
208 14
209 12
210 280
211 280
212 10
213 280
214 14
215 14
216 12
217 280
218 140
219 14
220 14
221 2
222 280
223 14
224 6
225 140
226 70
227 14
228 14
229 14
230 8
231 280
232 70
233 14
234 14
235 14
236 14
237 4
238 280
239 280
240 70
241 14
242 14
243 14
244 8
245 280
246 70
247 14
248 14
249 14
250 14
251 4
252 140
253 70
254 280
255 280
256 14
257 14
258 14
259 14
260 4
261 280
262 140
263 14
264 14
265 14
266 14
267 4
268 280
269 140
270 70
271 14
272 14
273 12
274 140
275 14
276 14
277 12
278 140
279 14
280 14
281 14
282 8
283 280
284 280
285 70
286 10
287 140
288 14
289 14
290 2
291 280
292 140
293 14
294 14
295 14
296 14
297 4
298 280
299 14
300 14
301 14
302 8
303 280
304 140
305 70
306 14
307 14
308 12
309 280
310 140
311 70
312 14
313 14
314 2
315 280
316 280
317 10
318 140
319 14
320 14
321 2
322 280
323 14
324 14
325 14
326 14
327 4
328 280
329 280
330 280
331 140
332 14
333 14
334 2
335 280
336 140
337 14
338 14
339 12
340 280
341 280
342 14
343 14
344 12
DEPOT_SECTION
1
-1
EOF