SDVRP instances/custom_instances/p02_8_splitx10_0.sol
343 -6 8 10 7 9 5 109 108 107 270 267 272 268 269 271 -16 331 333 330 329 332 101 102 98 97 95 96 100 99 122 124 123 121 -18 20 19 17 133 130 129 128 132 131 217 216 220 219 218 -23 24 22 25 21 104 105 106 251 252 -26 126 127 125 195 196 197 -27 28 56 57 54 55 136 134 135 247 246 248 250 249 286 289 -34 33 184 58 60 59 61 296 295 293 292 291 290 294 -37 36 35 151 154 156 153 155 157 152 314 -45 43 44 167 168 165 166 169 164 -51 53 52 146 145 117 116 119 115 118 -68 67 65 64 63 66 342 343 341 339 340 310 308 313 309 312 311 -72 71 69 70 91 93 94 92 90 150 148 149 147 209 211 -73 74 75 38 39 41 42 40 298 297 299 300 301 -79 77 78 76 80 174 176 177 175 12 13 11 336 335 338 334 337 -103 319 320 318 317 120 162 158 160 159 161 163 -111 110 114 113 112 32 31 179 178 181 180 -144 139 142 137 143 141 140 138 47 46 48 50 49 183 182 -188 189 187 186 185 62 200 199 201 202 198 225 227 229 228 -192 190 191 193 194 283 282 284 285 -207 205 204 203 208 206 255 256 257 253 258 259 254 275 273 276 274 -210 81 83 84 82 323 322 326 324 325 321 212 -213 214 215 86 87 88 89 85 14 15 260 261 264 265 262 263 266 -223 222 221 328 327 -226 224 281 277 278 279 280 172 170 171 173 235 230 234 236 233 232 231 -243 238 241 239 240 242 237 1 4 2 3 245 244 288 287 -305 304 307 306 302 29 303 30 315 316 0 





OBJ=
2439.779
BEST_KNOWN=
0.000